25
    1    16    16
    2     5     5
    3     9     9
    4    17    17
    5     7     7
    6    15    15
    7    12    12
    8    19    19
    9     1     1
   10    16    16
   11    14    14
   12    16    16
   13    18    18
   14    20    20
   15    16    16
   16     6     6
   17    10    10
   18     5     5
   19    15    15
   20     5     5
   21    12    12
   22    18    18
   23    20    20
   24    10    10
   25    13    13
43
